p edge 30 40 10
v 2 5 28
v 3 11 20 29
v 6 3 12 19 21 23 24
v 5 1 7 8 16 22
v 3 2 9 25
v 2 15 17
v 2 18 26
v 4 4 13 14 30
v 1 27
v 2 6 10
e 1 4
e 2 11
e 2 15
e 3 10
e 3 18
e 3 27
e 4 10
e 4 15
e 4 18
e 4 28
e 5 23
e 5 28
e 6 7
e 6 26
e 6 30
e 7 19
e 7 23
e 8 14
e 8 21
e 8 22
e 8 27
e 9 10
e 9 11
e 9 27
e 9 28
e 10 21
e 11 23
e 13 16
e 15 17
e 15 27
e 16 24
e 17 19
e 20 26
e 21 23
e 22 23
e 22 30
e 23 29
e 24 28
e 25 30
e 26 29
